c Standarized MaxSat Instance
c{
c "sha1sum": "2ba7e1c37899507d450d2336df09d90a79cc7fc2",
c "nvars": 40,
c "ncls": 1022,
c "nhards": 0,
c "nhard_len_stats":
c    { "min": 0, "max": 0, "ave": 0.00,
c      "stddev": 0.00 },
c "nsofts": 1022,
c "nsoft_len_stats":
c    { "min": 2, "max": 2, "ave": 2.00,
c      "stddev": 0.00 },
c "nsoft_wts": 10,
c "soft_wt_stats":
c    { "min": 1, "max": 10, "ave": 5.58,
c      "stddev": 2.83 }
c}
c------------------------------------------------------------
c FILE:  brock800_1.b
c
c Graph Generator
c
c By: Mark Brockington (brock@cs.ualberta.ca)
c and Joe Culberson (joe@cs.ualberta.ca)
c
c Graph Size:800, Clique Size: 23
c Seed:0, Edge Density:  0.65000
c Depth 2 Hiding
c
c Clique Elements are:
c 133 17 92 668 177 38 19 233 623 641 
c 733 650 387 84 444 134 303 251 206 767 
c 765 665 634 
c
c Estimated Size of Uncompressed File:   2.0MB
c
p wcnf 40 1022 5707
9 1 4 0
9 -1 -4 0
4 1 5 0
4 -1 -5 0
8 1 6 0
8 -1 -6 0
8 1 7 0
8 -1 -7 0
10 1 8 0
10 -1 -8 0
2 1 10 0
2 -1 -10 0
4 1 11 0
4 -1 -11 0
8 1 12 0
8 -1 -12 0
3 1 13 0
3 -1 -13 0
6 1 15 0
6 -1 -15 0
5 1 19 0
5 -1 -19 0
7 1 20 0
7 -1 -20 0
4 1 22 0
4 -1 -22 0
6 1 24 0
6 -1 -24 0
10 1 25 0
10 -1 -25 0
10 1 26 0
10 -1 -26 0
7 1 27 0
7 -1 -27 0
8 1 28 0
8 -1 -28 0
2 1 29 0
2 -1 -29 0
7 1 31 0
7 -1 -31 0
1 1 32 0
1 -1 -32 0
3 1 33 0
3 -1 -33 0
2 1 35 0
2 -1 -35 0
9 1 36 0
9 -1 -36 0
2 1 37 0
2 -1 -37 0
5 1 38 0
5 -1 -38 0
2 1 39 0
2 -1 -39 0
2 2 3 0
2 -2 -3 0
10 2 4 0
10 -2 -4 0
3 2 5 0
3 -2 -5 0
6 2 7 0
6 -2 -7 0
9 2 8 0
9 -2 -8 0
7 2 9 0
7 -2 -9 0
3 2 11 0
3 -2 -11 0
7 2 13 0
7 -2 -13 0
6 2 14 0
6 -2 -14 0
5 2 15 0
5 -2 -15 0
10 2 17 0
10 -2 -17 0
3 2 18 0
3 -2 -18 0
8 2 20 0
8 -2 -20 0
6 2 23 0
6 -2 -23 0
8 2 25 0
8 -2 -25 0
5 2 26 0
5 -2 -26 0
9 2 27 0
9 -2 -27 0
3 2 29 0
3 -2 -29 0
4 2 31 0
4 -2 -31 0
9 2 32 0
9 -2 -32 0
10 2 34 0
10 -2 -34 0
1 2 35 0
1 -2 -35 0
10 2 37 0
10 -2 -37 0
6 2 39 0
6 -2 -39 0
1 3 4 0
1 -3 -4 0
2 3 6 0
2 -3 -6 0
7 3 8 0
7 -3 -8 0
9 3 9 0
9 -3 -9 0
4 3 10 0
4 -3 -10 0
1 3 12 0
1 -3 -12 0
1 3 13 0
1 -3 -13 0
5 3 14 0
5 -3 -14 0
1 3 17 0
1 -3 -17 0
3 3 18 0
3 -3 -18 0
10 3 19 0
10 -3 -19 0
10 3 20 0
10 -3 -20 0
9 3 21 0
9 -3 -21 0
3 3 22 0
3 -3 -22 0
6 3 23 0
6 -3 -23 0
4 3 25 0
4 -3 -25 0
8 3 26 0
8 -3 -26 0
6 3 28 0
6 -3 -28 0
7 3 31 0
7 -3 -31 0
6 3 36 0
6 -3 -36 0
1 3 37 0
1 -3 -37 0
5 3 38 0
5 -3 -38 0
10 3 39 0
10 -3 -39 0
10 3 40 0
10 -3 -40 0
8 4 5 0
8 -4 -5 0
3 4 6 0
3 -4 -6 0
8 4 7 0
8 -4 -7 0
7 4 8 0
7 -4 -8 0
4 4 9 0
4 -4 -9 0
7 4 12 0
7 -4 -12 0
2 4 14 0
2 -4 -14 0
5 4 15 0
5 -4 -15 0
9 4 16 0
9 -4 -16 0
9 4 17 0
9 -4 -17 0
4 4 18 0
4 -4 -18 0
3 4 19 0
3 -4 -19 0
9 4 20 0
9 -4 -20 0
4 4 21 0
4 -4 -21 0
7 4 22 0
7 -4 -22 0
10 4 25 0
10 -4 -25 0
6 4 27 0
6 -4 -27 0
7 4 29 0
7 -4 -29 0
9 4 34 0
9 -4 -34 0
5 4 35 0
5 -4 -35 0
10 4 38 0
10 -4 -38 0
4 4 39 0
4 -4 -39 0
9 4 40 0
9 -4 -40 0
7 5 7 0
7 -5 -7 0
10 5 8 0
10 -5 -8 0
5 5 9 0
5 -5 -9 0
3 5 10 0
3 -5 -10 0
10 5 11 0
10 -5 -11 0
10 5 12 0
10 -5 -12 0
2 5 13 0
2 -5 -13 0
9 5 14 0
9 -5 -14 0
7 5 15 0
7 -5 -15 0
5 5 16 0
5 -5 -16 0
7 5 19 0
7 -5 -19 0
3 5 22 0
3 -5 -22 0
8 5 23 0
8 -5 -23 0
4 5 25 0
4 -5 -25 0
5 5 26 0
5 -5 -26 0
3 5 28 0
3 -5 -28 0
2 5 29 0
2 -5 -29 0
3 5 30 0
3 -5 -30 0
6 5 31 0
6 -5 -31 0
5 5 32 0
5 -5 -32 0
2 5 33 0
2 -5 -33 0
10 5 34 0
10 -5 -34 0
2 5 35 0
2 -5 -35 0
2 5 37 0
2 -5 -37 0
5 5 39 0
5 -5 -39 0
8 6 8 0
8 -6 -8 0
10 6 9 0
10 -6 -9 0
10 6 10 0
10 -6 -10 0
7 6 11 0
7 -6 -11 0
4 6 12 0
4 -6 -12 0
8 6 13 0
8 -6 -13 0
4 6 14 0
4 -6 -14 0
3 6 15 0
3 -6 -15 0
3 6 17 0
3 -6 -17 0
6 6 18 0
6 -6 -18 0
3 6 19 0
3 -6 -19 0
2 6 21 0
2 -6 -21 0
8 6 22 0
8 -6 -22 0
2 6 23 0
2 -6 -23 0
8 6 25 0
8 -6 -25 0
2 6 26 0
2 -6 -26 0
8 6 29 0
8 -6 -29 0
1 6 31 0
1 -6 -31 0
10 6 33 0
10 -6 -33 0
1 6 34 0
1 -6 -34 0
6 6 35 0
6 -6 -35 0
2 6 36 0
2 -6 -36 0
3 6 37 0
3 -6 -37 0
8 6 38 0
8 -6 -38 0
8 6 39 0
8 -6 -39 0
7 7 8 0
7 -7 -8 0
10 7 10 0
10 -7 -10 0
7 7 13 0
7 -7 -13 0
8 7 14 0
8 -7 -14 0
1 7 15 0
1 -7 -15 0
2 7 17 0
2 -7 -17 0
6 7 18 0
6 -7 -18 0
1 7 19 0
1 -7 -19 0
1 7 20 0
1 -7 -20 0
3 7 23 0
3 -7 -23 0
5 7 26 0
5 -7 -26 0
9 7 28 0
9 -7 -28 0
6 7 29 0
6 -7 -29 0
8 7 34 0
8 -7 -34 0
1 7 35 0
1 -7 -35 0
2 7 37 0
2 -7 -37 0
10 7 38 0
10 -7 -38 0
3 7 40 0
3 -7 -40 0
9 8 11 0
9 -8 -11 0
2 8 12 0
2 -8 -12 0
10 8 14 0
10 -8 -14 0
1 8 16 0
1 -8 -16 0
9 8 19 0
9 -8 -19 0
1 8 20 0
1 -8 -20 0
1 8 21 0
1 -8 -21 0
10 8 24 0
10 -8 -24 0
6 8 25 0
6 -8 -25 0
2 8 26 0
2 -8 -26 0
2 8 27 0
2 -8 -27 0
4 8 30 0
4 -8 -30 0
10 8 31 0
10 -8 -31 0
9 8 33 0
9 -8 -33 0
4 8 34 0
4 -8 -34 0
6 8 35 0
6 -8 -35 0
6 8 36 0
6 -8 -36 0
5 8 40 0
5 -8 -40 0
7 9 13 0
7 -9 -13 0
1 9 14 0
1 -9 -14 0
6 9 15 0
6 -9 -15 0
8 9 16 0
8 -9 -16 0
4 9 18 0
4 -9 -18 0
10 9 20 0
10 -9 -20 0
6 9 26 0
6 -9 -26 0
9 9 30 0
9 -9 -30 0
8 9 31 0
8 -9 -31 0
7 9 32 0
7 -9 -32 0
1 9 33 0
1 -9 -33 0
8 9 34 0
8 -9 -34 0
9 9 35 0
9 -9 -35 0
10 9 36 0
10 -9 -36 0
9 9 38 0
9 -9 -38 0
9 10 11 0
9 -10 -11 0
10 10 13 0
10 -10 -13 0
8 10 16 0
8 -10 -16 0
10 10 18 0
10 -10 -18 0
10 10 24 0
10 -10 -24 0
7 10 25 0
7 -10 -25 0
5 10 27 0
5 -10 -27 0
2 10 30 0
2 -10 -30 0
9 10 31 0
9 -10 -31 0
9 10 33 0
9 -10 -33 0
1 10 35 0
1 -10 -35 0
7 10 36 0
7 -10 -36 0
3 10 37 0
3 -10 -37 0
7 10 38 0
7 -10 -38 0
3 10 39 0
3 -10 -39 0
8 10 40 0
8 -10 -40 0
4 11 18 0
4 -11 -18 0
4 11 19 0
4 -11 -19 0
3 11 21 0
3 -11 -21 0
1 11 22 0
1 -11 -22 0
7 11 23 0
7 -11 -23 0
3 11 24 0
3 -11 -24 0
7 11 28 0
7 -11 -28 0
6 11 29 0
6 -11 -29 0
10 11 30 0
10 -11 -30 0
3 11 31 0
3 -11 -31 0
6 11 32 0
6 -11 -32 0
8 11 33 0
8 -11 -33 0
2 11 35 0
2 -11 -35 0
5 11 36 0
5 -11 -36 0
6 11 37 0
6 -11 -37 0
10 11 38 0
10 -11 -38 0
5 11 39 0
5 -11 -39 0
4 11 40 0
4 -11 -40 0
9 12 13 0
9 -12 -13 0
5 12 14 0
5 -12 -14 0
1 12 15 0
1 -12 -15 0
4 12 17 0
4 -12 -17 0
6 12 18 0
6 -12 -18 0
9 12 19 0
9 -12 -19 0
3 12 20 0
3 -12 -20 0
7 12 21 0
7 -12 -21 0
5 12 22 0
5 -12 -22 0
5 12 24 0
5 -12 -24 0
4 12 26 0
4 -12 -26 0
8 12 27 0
8 -12 -27 0
2 12 28 0
2 -12 -28 0
7 12 29 0
7 -12 -29 0
1 12 30 0
1 -12 -30 0
5 12 31 0
5 -12 -31 0
7 12 32 0
7 -12 -32 0
7 12 34 0
7 -12 -34 0
7 12 36 0
7 -12 -36 0
4 12 38 0
4 -12 -38 0
2 13 14 0
2 -13 -14 0
7 13 15 0
7 -13 -15 0
7 13 16 0
7 -13 -16 0
8 13 17 0
8 -13 -17 0
4 13 19 0
4 -13 -19 0
8 13 20 0
8 -13 -20 0
3 13 21 0
3 -13 -21 0
10 13 23 0
10 -13 -23 0
7 13 25 0
7 -13 -25 0
7 13 26 0
7 -13 -26 0
3 13 28 0
3 -13 -28 0
6 13 33 0
6 -13 -33 0
1 13 34 0
1 -13 -34 0
3 13 35 0
3 -13 -35 0
9 13 36 0
9 -13 -36 0
7 13 39 0
7 -13 -39 0
1 14 16 0
1 -14 -16 0
2 14 18 0
2 -14 -18 0
4 14 19 0
4 -14 -19 0
6 14 20 0
6 -14 -20 0
6 14 22 0
6 -14 -22 0
7 14 23 0
7 -14 -23 0
3 14 25 0
3 -14 -25 0
8 14 27 0
8 -14 -27 0
3 14 31 0
3 -14 -31 0
4 14 32 0
4 -14 -32 0
2 14 33 0
2 -14 -33 0
10 14 34 0
10 -14 -34 0
1 14 37 0
1 -14 -37 0
9 15 16 0
9 -15 -16 0
4 15 18 0
4 -15 -18 0
2 15 19 0
2 -15 -19 0
5 15 21 0
5 -15 -21 0
10 15 22 0
10 -15 -22 0
10 15 23 0
10 -15 -23 0
8 15 24 0
8 -15 -24 0
7 15 25 0
7 -15 -25 0
2 15 26 0
2 -15 -26 0
7 15 27 0
7 -15 -27 0
4 15 28 0
4 -15 -28 0
8 15 30 0
8 -15 -30 0
10 15 33 0
10 -15 -33 0
10 15 34 0
10 -15 -34 0
9 15 35 0
9 -15 -35 0
3 15 36 0
3 -15 -36 0
8 15 37 0
8 -15 -37 0
6 16 18 0
6 -16 -18 0
3 16 21 0
3 -16 -21 0
10 16 22 0
10 -16 -22 0
10 16 25 0
10 -16 -25 0
9 16 27 0
9 -16 -27 0
5 16 28 0
5 -16 -28 0
6 16 29 0
6 -16 -29 0
2 16 30 0
2 -16 -30 0
3 16 33 0
3 -16 -33 0
9 16 36 0
9 -16 -36 0
5 16 37 0
5 -16 -37 0
5 16 38 0
5 -16 -38 0
9 16 40 0
9 -16 -40 0
5 17 18 0
5 -17 -18 0
3 17 19 0
3 -17 -19 0
2 17 21 0
2 -17 -21 0
7 17 22 0
7 -17 -22 0
8 17 23 0
8 -17 -23 0
2 17 24 0
2 -17 -24 0
7 17 26 0
7 -17 -26 0
5 17 28 0
5 -17 -28 0
9 17 29 0
9 -17 -29 0
8 17 30 0
8 -17 -30 0
2 17 31 0
2 -17 -31 0
3 17 32 0
3 -17 -32 0
5 17 33 0
5 -17 -33 0
2 17 34 0
2 -17 -34 0
2 17 35 0
2 -17 -35 0
4 17 36 0
4 -17 -36 0
4 17 37 0
4 -17 -37 0
10 17 38 0
10 -17 -38 0
10 17 39 0
10 -17 -39 0
7 18 19 0
7 -18 -19 0
9 18 22 0
9 -18 -22 0
9 18 24 0
9 -18 -24 0
5 18 25 0
5 -18 -25 0
4 18 27 0
4 -18 -27 0
4 18 30 0
4 -18 -30 0
7 18 31 0
7 -18 -31 0
7 18 32 0
7 -18 -32 0
3 18 33 0
3 -18 -33 0
2 18 34 0
2 -18 -34 0
1 18 35 0
1 -18 -35 0
2 18 36 0
2 -18 -36 0
7 18 40 0
7 -18 -40 0
4 19 20 0
4 -19 -20 0
3 19 23 0
3 -19 -23 0
4 19 26 0
4 -19 -26 0
1 19 27 0
1 -19 -27 0
5 19 28 0
5 -19 -28 0
10 19 30 0
10 -19 -30 0
6 19 32 0
6 -19 -32 0
3 19 33 0
3 -19 -33 0
7 19 34 0
7 -19 -34 0
8 19 35 0
8 -19 -35 0
5 19 36 0
5 -19 -36 0
2 19 39 0
2 -19 -39 0
9 19 40 0
9 -19 -40 0
7 20 21 0
7 -20 -21 0
6 20 22 0
6 -20 -22 0
3 20 23 0
3 -20 -23 0
6 20 24 0
6 -20 -24 0
5 20 26 0
5 -20 -26 0
9 20 27 0
9 -20 -27 0
4 20 28 0
4 -20 -28 0
3 20 29 0
3 -20 -29 0
4 20 30 0
4 -20 -30 0
8 20 31 0
8 -20 -31 0
7 20 32 0
7 -20 -32 0
10 20 33 0
10 -20 -33 0
4 20 34 0
4 -20 -34 0
9 20 35 0
9 -20 -35 0
2 20 36 0
2 -20 -36 0
5 20 37 0
5 -20 -37 0
1 20 38 0
1 -20 -38 0
8 20 39 0
8 -20 -39 0
8 20 40 0
8 -20 -40 0
3 21 23 0
3 -21 -23 0
2 21 24 0
2 -21 -24 0
9 21 25 0
9 -21 -25 0
8 21 26 0
8 -21 -26 0
1 21 29 0
1 -21 -29 0
5 21 30 0
5 -21 -30 0
10 21 31 0
10 -21 -31 0
8 21 32 0
8 -21 -32 0
3 21 33 0
3 -21 -33 0
5 21 38 0
5 -21 -38 0
9 21 39 0
9 -21 -39 0
1 21 40 0
1 -21 -40 0
1 22 23 0
1 -22 -23 0
4 22 24 0
4 -22 -24 0
4 22 25 0
4 -22 -25 0
7 22 26 0
7 -22 -26 0
9 22 27 0
9 -22 -27 0
2 22 28 0
2 -22 -28 0
1 22 29 0
1 -22 -29 0
1 22 30 0
1 -22 -30 0
5 22 31 0
5 -22 -31 0
8 22 32 0
8 -22 -32 0
7 22 33 0
7 -22 -33 0
5 22 37 0
5 -22 -37 0
2 22 39 0
2 -22 -39 0
6 23 24 0
6 -23 -24 0
6 23 25 0
6 -23 -25 0
6 23 26 0
6 -23 -26 0
6 23 28 0
6 -23 -28 0
4 23 30 0
4 -23 -30 0
4 23 31 0
4 -23 -31 0
9 23 32 0
9 -23 -32 0
5 23 35 0
5 -23 -35 0
2 23 38 0
2 -23 -38 0
7 23 40 0
7 -23 -40 0
6 24 26 0
6 -24 -26 0
7 24 28 0
7 -24 -28 0
6 24 30 0
6 -24 -30 0
3 24 31 0
3 -24 -31 0
9 24 32 0
9 -24 -32 0
1 24 34 0
1 -24 -34 0
1 24 35 0
1 -24 -35 0
10 24 36 0
10 -24 -36 0
2 24 37 0
2 -24 -37 0
5 24 38 0
5 -24 -38 0
3 24 39 0
3 -24 -39 0
9 24 40 0
9 -24 -40 0
3 25 26 0
3 -25 -26 0
4 25 28 0
4 -25 -28 0
9 25 30 0
9 -25 -30 0
4 25 31 0
4 -25 -31 0
9 25 34 0
9 -25 -34 0
7 25 35 0
7 -25 -35 0
1 25 36 0
1 -25 -36 0
3 25 37 0
3 -25 -37 0
8 25 38 0
8 -25 -38 0
7 26 27 0
7 -26 -27 0
9 26 28 0
9 -26 -28 0
4 26 29 0
4 -26 -29 0
3 26 30 0
3 -26 -30 0
2 26 31 0
2 -26 -31 0
7 26 32 0
7 -26 -32 0
2 26 33 0
2 -26 -33 0
7 26 34 0
7 -26 -34 0
8 26 35 0
8 -26 -35 0
8 26 36 0
8 -26 -36 0
3 26 37 0
3 -26 -37 0
5 26 38 0
5 -26 -38 0
4 26 39 0
4 -26 -39 0
5 26 40 0
5 -26 -40 0
3 27 28 0
3 -27 -28 0
4 27 29 0
4 -27 -29 0
6 27 30 0
6 -27 -30 0
2 27 32 0
2 -27 -32 0
6 27 34 0
6 -27 -34 0
1 27 35 0
1 -27 -35 0
4 27 37 0
4 -27 -37 0
4 27 38 0
4 -27 -38 0
4 27 39 0
4 -27 -39 0
8 27 40 0
8 -27 -40 0
3 28 29 0
3 -28 -29 0
7 28 30 0
7 -28 -30 0
6 28 31 0
6 -28 -31 0
10 28 32 0
10 -28 -32 0
7 28 33 0
7 -28 -33 0
9 28 34 0
9 -28 -34 0
7 28 36 0
7 -28 -36 0
4 28 37 0
4 -28 -37 0
7 28 38 0
7 -28 -38 0
1 28 39 0
1 -28 -39 0
6 28 40 0
6 -28 -40 0
9 29 30 0
9 -29 -30 0
7 29 31 0
7 -29 -31 0
7 29 32 0
7 -29 -32 0
6 29 33 0
6 -29 -33 0
5 29 34 0
5 -29 -34 0
4 29 36 0
4 -29 -36 0
8 29 37 0
8 -29 -37 0
9 29 38 0
9 -29 -38 0
7 29 39 0
7 -29 -39 0
2 29 40 0
2 -29 -40 0
1 30 35 0
1 -30 -35 0
1 30 36 0
1 -30 -36 0
7 30 37 0
7 -30 -37 0
2 30 38 0
2 -30 -38 0
7 30 39 0
7 -30 -39 0
8 31 32 0
8 -31 -32 0
6 31 33 0
6 -31 -33 0
1 31 35 0
1 -31 -35 0
1 31 36 0
1 -31 -36 0
4 31 37 0
4 -31 -37 0
3 31 38 0
3 -31 -38 0
7 32 33 0
7 -32 -33 0
9 32 35 0
9 -32 -35 0
2 32 37 0
2 -32 -37 0
4 32 38 0
4 -32 -38 0
7 32 39 0
7 -32 -39 0
9 32 40 0
9 -32 -40 0
7 33 34 0
7 -33 -34 0
4 33 35 0
4 -33 -35 0
9 33 37 0
9 -33 -37 0
2 33 38 0
2 -33 -38 0
2 33 40 0
2 -33 -40 0
6 34 35 0
6 -34 -35 0
9 34 36 0
9 -34 -36 0
7 34 38 0
7 -34 -38 0
10 34 39 0
10 -34 -39 0
2 35 36 0
2 -35 -36 0
4 35 37 0
4 -35 -37 0
8 35 39 0
8 -35 -39 0
9 36 37 0
9 -36 -37 0
6 37 38 0
6 -37 -38 0
8 37 39 0
8 -37 -39 0
10 37 40 0
10 -37 -40 0
3 39 40 0
3 -39 -40 0
